NAME /Users/henri/Research/solvers/instances/idol-instances/robust/collection/spp_dkp_Lefebvre_et_al_2026/shortest_path_8_1/models/uncertain_obj/model
ROWS
 N  OBJ
 E  flow_cons_inner_nodes[1]
 E  flow_cons_inner_nodes[2]
 E  flow_cons_inner_nodes[3]
 E  flow_cons_inner_nodes[5]
 E  flow_cons_inner_nodes[6]
 E  flow_cons_inner_nodes[7]
 E  flow_cons_source
 E  flow_cons_target
COLUMNS
    MARKER    'MARKER'                 'INTORG'
    y[0,2]     OBJ        26.93
    y[0,2]     flow_cons_source 1
    y[0,2]     flow_cons_inner_nodes[2] 1
    y[0,3]     OBJ        65.19
    y[0,3]     flow_cons_source 1
    y[0,3]     flow_cons_inner_nodes[3] 1
    y[0,5]     OBJ        23.41
    y[0,5]     flow_cons_source 1
    y[0,5]     flow_cons_inner_nodes[5] 1
    y[0,6]     OBJ        76.9
    y[0,6]     flow_cons_source 1
    y[0,6]     flow_cons_inner_nodes[6] 1
    y[0,7]     OBJ        80.53
    y[0,7]     flow_cons_source 1
    y[0,7]     flow_cons_inner_nodes[7] 1
    y[1,2]     OBJ        80.53
    y[1,2]     flow_cons_inner_nodes[2] 1
    y[1,2]     flow_cons_inner_nodes[1] -1
    y[1,3]     OBJ        43.68
    y[1,3]     flow_cons_inner_nodes[3] 1
    y[1,3]     flow_cons_inner_nodes[1] -1
    y[1,4]     OBJ        4
    y[1,4]     flow_cons_target 1
    y[1,4]     flow_cons_inner_nodes[1] -1
    y[1,5]     OBJ        86.31
    y[1,5]     flow_cons_inner_nodes[5] 1
    y[1,5]     flow_cons_inner_nodes[1] -1
    y[1,6]     OBJ        36.4
    y[1,6]     flow_cons_inner_nodes[6] 1
    y[1,6]     flow_cons_inner_nodes[1] -1
    y[2,0]     OBJ        26.93
    y[2,0]     flow_cons_source -1
    y[2,0]     flow_cons_inner_nodes[2] -1
    y[2,1]     OBJ        80.53
    y[2,1]     flow_cons_inner_nodes[2] -1
    y[2,1]     flow_cons_inner_nodes[1] 1
    y[2,3]     OBJ        38.95
    y[2,3]     flow_cons_inner_nodes[3] 1
    y[2,3]     flow_cons_inner_nodes[2] -1
    y[2,4]     OBJ        82.49
    y[2,4]     flow_cons_target 1
    y[2,4]     flow_cons_inner_nodes[2] -1
    y[2,5]     OBJ        6.08
    y[2,5]     flow_cons_inner_nodes[5] 1
    y[2,5]     flow_cons_inner_nodes[2] -1
    y[2,6]     OBJ        58.14
    y[2,6]     flow_cons_inner_nodes[6] 1
    y[2,6]     flow_cons_inner_nodes[2] -1
    y[2,7]     OBJ        82.04
    y[2,7]     flow_cons_inner_nodes[7] 1
    y[2,7]     flow_cons_inner_nodes[2] -1
    y[3,0]     OBJ        65.19
    y[3,0]     flow_cons_source -1
    y[3,0]     flow_cons_inner_nodes[3] -1
    y[3,1]     OBJ        43.68
    y[3,1]     flow_cons_inner_nodes[3] -1
    y[3,1]     flow_cons_inner_nodes[1] 1
    y[3,2]     OBJ        38.95
    y[3,2]     flow_cons_inner_nodes[3] -1
    y[3,2]     flow_cons_inner_nodes[2] 1
    y[3,4]     OBJ        44.94
    y[3,4]     flow_cons_target 1
    y[3,4]     flow_cons_inner_nodes[3] -1
    y[3,5]     OBJ        44.2
    y[3,5]     flow_cons_inner_nodes[5] 1
    y[3,5]     flow_cons_inner_nodes[3] -1
    y[3,6]     OBJ        36.4
    y[3,6]     flow_cons_inner_nodes[6] 1
    y[3,6]     flow_cons_inner_nodes[3] -1
    y[4,1]     OBJ        4
    y[4,1]     flow_cons_target -1
    y[4,1]     flow_cons_inner_nodes[1] 1
    y[4,2]     OBJ        82.49
    y[4,2]     flow_cons_target -1
    y[4,2]     flow_cons_inner_nodes[2] 1
    y[4,3]     OBJ        44.94
    y[4,3]     flow_cons_target -1
    y[4,3]     flow_cons_inner_nodes[3] 1
    y[4,5]     OBJ        88.19
    y[4,5]     flow_cons_target -1
    y[4,5]     flow_cons_inner_nodes[5] 1
    y[4,6]     OBJ        40.16
    y[4,6]     flow_cons_target -1
    y[4,6]     flow_cons_inner_nodes[6] 1
    y[5,0]     OBJ        23.41
    y[5,0]     flow_cons_source -1
    y[5,0]     flow_cons_inner_nodes[5] -1
    y[5,1]     OBJ        86.31
    y[5,1]     flow_cons_inner_nodes[5] -1
    y[5,1]     flow_cons_inner_nodes[1] 1
    y[5,2]     OBJ        6.08
    y[5,2]     flow_cons_inner_nodes[5] -1
    y[5,2]     flow_cons_inner_nodes[2] 1
    y[5,3]     OBJ        44.2
    y[5,3]     flow_cons_inner_nodes[5] -1
    y[5,3]     flow_cons_inner_nodes[3] 1
    y[5,4]     OBJ        88.19
    y[5,4]     flow_cons_target 1
    y[5,4]     flow_cons_inner_nodes[5] -1
    y[5,6]     OBJ        64.2
    y[5,6]     flow_cons_inner_nodes[6] 1
    y[5,6]     flow_cons_inner_nodes[5] -1
    y[5,7]     OBJ        85.8
    y[5,7]     flow_cons_inner_nodes[7] 1
    y[5,7]     flow_cons_inner_nodes[5] -1
    y[6,0]     OBJ        76.9
    y[6,0]     flow_cons_source -1
    y[6,0]     flow_cons_inner_nodes[6] -1
    y[6,1]     OBJ        36.4
    y[6,1]     flow_cons_inner_nodes[6] -1
    y[6,1]     flow_cons_inner_nodes[1] 1
    y[6,2]     OBJ        58.14
    y[6,2]     flow_cons_inner_nodes[6] -1
    y[6,2]     flow_cons_inner_nodes[2] 1
    y[6,3]     OBJ        36.4
    y[6,3]     flow_cons_inner_nodes[6] -1
    y[6,3]     flow_cons_inner_nodes[3] 1
    y[6,4]     OBJ        40.16
    y[6,4]     flow_cons_target 1
    y[6,4]     flow_cons_inner_nodes[6] -1
    y[6,5]     OBJ        64.2
    y[6,5]     flow_cons_inner_nodes[6] -1
    y[6,5]     flow_cons_inner_nodes[5] 1
    y[6,7]     OBJ        61.01
    y[6,7]     flow_cons_inner_nodes[7] 1
    y[6,7]     flow_cons_inner_nodes[6] -1
    y[7,0]     OBJ        80.53
    y[7,0]     flow_cons_source -1
    y[7,0]     flow_cons_inner_nodes[7] -1
    y[7,2]     OBJ        82.04
    y[7,2]     flow_cons_inner_nodes[7] -1
    y[7,2]     flow_cons_inner_nodes[2] 1
    y[7,5]     OBJ        85.8
    y[7,5]     flow_cons_inner_nodes[7] -1
    y[7,5]     flow_cons_inner_nodes[5] 1
    y[7,6]     OBJ        61.01
    y[7,6]     flow_cons_inner_nodes[7] -1
    y[7,6]     flow_cons_inner_nodes[6] 1
    MARKER    'MARKER'                 'INTEND'
RHS
    RHS       flow_cons_inner_nodes[1] -0
    RHS       flow_cons_inner_nodes[2] -0
    RHS       flow_cons_inner_nodes[3] -0
    RHS       flow_cons_inner_nodes[5] -0
    RHS       flow_cons_inner_nodes[6] -0
    RHS       flow_cons_inner_nodes[7] -0
    RHS       flow_cons_source 1
    RHS       flow_cons_target 1
BOUNDS
 LI BND       y[0,2]     0
 UI BND       y[0,2]     1
 LI BND       y[0,3]     0
 UI BND       y[0,3]     1
 LI BND       y[0,5]     0
 UI BND       y[0,5]     1
 LI BND       y[0,6]     0
 UI BND       y[0,6]     1
 LI BND       y[0,7]     0
 UI BND       y[0,7]     1
 LI BND       y[1,2]     0
 UI BND       y[1,2]     1
 LI BND       y[1,3]     0
 UI BND       y[1,3]     1
 LI BND       y[1,4]     0
 UI BND       y[1,4]     1
 LI BND       y[1,5]     0
 UI BND       y[1,5]     1
 LI BND       y[1,6]     0
 UI BND       y[1,6]     1
 LI BND       y[2,0]     0
 UI BND       y[2,0]     1
 LI BND       y[2,1]     0
 UI BND       y[2,1]     1
 LI BND       y[2,3]     0
 UI BND       y[2,3]     1
 LI BND       y[2,4]     0
 UI BND       y[2,4]     1
 LI BND       y[2,5]     0
 UI BND       y[2,5]     1
 LI BND       y[2,6]     0
 UI BND       y[2,6]     1
 LI BND       y[2,7]     0
 UI BND       y[2,7]     1
 LI BND       y[3,0]     0
 UI BND       y[3,0]     1
 LI BND       y[3,1]     0
 UI BND       y[3,1]     1
 LI BND       y[3,2]     0
 UI BND       y[3,2]     1
 LI BND       y[3,4]     0
 UI BND       y[3,4]     1
 LI BND       y[3,5]     0
 UI BND       y[3,5]     1
 LI BND       y[3,6]     0
 UI BND       y[3,6]     1
 LI BND       y[4,1]     0
 UI BND       y[4,1]     1
 LI BND       y[4,2]     0
 UI BND       y[4,2]     1
 LI BND       y[4,3]     0
 UI BND       y[4,3]     1
 LI BND       y[4,5]     0
 UI BND       y[4,5]     1
 LI BND       y[4,6]     0
 UI BND       y[4,6]     1
 LI BND       y[5,0]     0
 UI BND       y[5,0]     1
 LI BND       y[5,1]     0
 UI BND       y[5,1]     1
 LI BND       y[5,2]     0
 UI BND       y[5,2]     1
 LI BND       y[5,3]     0
 UI BND       y[5,3]     1
 LI BND       y[5,4]     0
 UI BND       y[5,4]     1
 LI BND       y[5,6]     0
 UI BND       y[5,6]     1
 LI BND       y[5,7]     0
 UI BND       y[5,7]     1
 LI BND       y[6,0]     0
 UI BND       y[6,0]     1
 LI BND       y[6,1]     0
 UI BND       y[6,1]     1
 LI BND       y[6,2]     0
 UI BND       y[6,2]     1
 LI BND       y[6,3]     0
 UI BND       y[6,3]     1
 LI BND       y[6,4]     0
 UI BND       y[6,4]     1
 LI BND       y[6,5]     0
 UI BND       y[6,5]     1
 LI BND       y[6,7]     0
 UI BND       y[6,7]     1
 LI BND       y[7,0]     0
 UI BND       y[7,0]     1
 LI BND       y[7,2]     0
 UI BND       y[7,2]     1
 LI BND       y[7,5]     0
 UI BND       y[7,5]     1
 LI BND       y[7,6]     0
 UI BND       y[7,6]     1
ENDATA
